results_rootrelaxation/bin012_080_028.srr.sol
solution status: optimal solution found
objective value:                     17.5327868852459
_var702_                            0.139344262295082 	(obj:2)
_var712_                            0.655737704918033 	(obj:1)
_var719_                            0.098360655737705 	(obj:1)
_var725_                            0.516393442622951 	(obj:0)
_var747_                            0.147540983606558 	(obj:0)
_var751_                            0.426229508196722 	(obj:1)
_var754_                            0.180327868852459 	(obj:2)
_var755_                            0.122950819672131 	(obj:2)
_var775_                            0.204918032786885 	(obj:4)
_var783_                           0.0245901639344263 	(obj:2)
_var787_                           0.0655737704918035 	(obj:3)
_var788_                            0.180327868852459 	(obj:2)
_var790_                           0.0491803278688519 	(obj:2)
_var803_                            0.483606557377049 	(obj:2)
_var816_                            0.622950819672131 	(obj:1)
_var817_                            0.180327868852459 	(obj:2)
_var818_                            0.344262295081967 	(obj:1)
_var820_                           0.0573770491803277 	(obj:2)
_var826_                            0.795081967213115 	(obj:2)
_var827_                            0.221311475409836 	(obj:1)
_var829_                            0.237704918032787 	(obj:1)
_var834_                            0.180327868852459 	(obj:2)
_var837_                            0.180327868852459 	(obj:1)
_var844_                           0.0491803278688524 	(obj:1)
_var847_                            0.336065573770492 	(obj:1)
_var853_                            0.573770491803278 	(obj:2)
_var857_                            0.245901639344262 	(obj:2)
_var863_                            0.311475409836065 	(obj:3)
_var864_                          0.00819672131147542 	(obj:2)
_var872_                           0.0655737704918032 	(obj:2)
_var874_                           0.0245901639344262 	(obj:2)
_var876_                            0.622950819672131 	(obj:2)
_var878_                             0.10655737704918 	(obj:2)
_var880_                           0.0245901639344263 	(obj:1)
_var885_                           0.0737704918032788 	(obj:3)
_var886_                            0.114754098360656 	(obj:2)
_var887_                           0.0573770491803278 	(obj:3)
_var889_                            0.131147540983607 	(obj:1)
_var890_                           0.0901639344262292 	(obj:2)
_var893_                           0.0491803278688526 	(obj:3)
_var894_                           0.0983606557377051 	(obj:1)
_var895_                            0.311475409836066 	(obj:1)
_var898_                           0.0163934426229513 	(obj:2)
_var902_                           0.0245901639344263 	(obj:3)
_var905_                            0.229508196721311 	(obj:3)
_var907_                             0.10655737704918 	(obj:1)
_var908_                           0.0163934426229507 	(obj:3)
_var909_                           0.0245901639344264 	(obj:2)
_var910_                           0.0573770491803278 	(obj:2)
_var911_                          0.00819672131147542 	(obj:1)
_var912_                            0.155737704918033 	(obj:2)
_var913_                           0.0163934426229506 	(obj:2)
_var914_                            0.114754098360655 	(obj:1)
_var915_                            0.336065573770492 	(obj:2)
_var916_                            0.131147540983607 	(obj:1)
_var918_                           0.0245901639344264 	(obj:0)
_var919_                            0.229508196721311 	(obj:1)
_var922_                           0.0409836065573768 	(obj:2)
_var924_                           0.0573770491803274 	(obj:2)
